c --- [ banner ] -------------------------------------------------------------
c 
c CaDiCaL Radically Simplified CDCL SAT Solver
c Copyright (c) 2016-2021 A. Biere, M. Fleury, N. Froleyks
c 
c Version 1.5.2 a5f15211db36c3956764e18194dd5bd63bf3b5e6
c g++ (GCC) 9.3.0 -Wall -Wextra -O3 -DNDEBUG
c Fri Oct 21 01:27:37 EDT 2022 Linux gra-login3 3.10.0-1160.66.1.el7.x86_64 x86_64
c 
c --- [ limit ] --------------------------------------------------------------
c 
c setting conflict limit to 200000 conflicts (due to '200000')
c 
c --- [ parsing input ] ------------------------------------------------------
c 
c reading DIMACS file from '33.cubes2935.adj'
c opening file to read '33.cubes2935.adj'
c found 'p cnf 6160 1595472' header
c parsed 1595472 clauses in 19.54 seconds process time
c closing file '33.cubes2935.adj'
c after reading 1457566757 bytes 1390.0 MB
c 
c --- [ options ] ------------------------------------------------------------
c 
c all options are set to their default value
c 
c --- [ solving ] ------------------------------------------------------------
c 
c time measured in process time since initialization
c 
c  seconds    reductions  redundant   irredundant
c          MB     restarts       trail       variables
c            level   conflicts       glue         remaining
c 
c * 19.54 1385  0 0   0    0    0  0% 0 1595422 2375 39%
c { 21.06 1444  0 0   0    0    0  0% 0 1595422 2375 39%
c i 24.58 1493 279 0   7  204  169 25% 7 1595422 2374 39%
c i 24.72 1495 263 0  10  219  181 26% 8 1595422 2373 39%
c - 29.51 1455 207 1  29  300  254 26% 13 164458 2373 39%
c i 30.20 1362 179 1  45  367  310 27% 13 164458 2364 38%
c i 30.22 1362 178 1  46  369  311 27% 13 164458 2354 38%
c i 30.34 1362 174 1  50  381  322 27% 14 164458 2353 38%
c i 30.35 1362 173 1  50  385  325 27% 15 164458 2352 38%
c i 30.36 1362 173 1  51  386  325 27% 15 164458 2351 38%
c i 30.54 1362 165 1  58  416  350 27% 15 164458 2350 38%
c i 30.55 1362 164 1  58  417  350 27% 15 164458 2349 38%
c i 30.57 1362 164 1  59  422  354 27% 15 164458 2348 38%
c i 30.81 1362 159 1  67  458  385 27% 19 164458 2347 38%
c i 30.86 1362 158 1  70  468  393 26% 19 164458 2346 38%
c i 31.44 1362 146 1  94  556  471 26% 22 164458 2345 38%
c i 31.49 1362 144 1  97  571  484 26% 23 164458 2344 38%
c i 31.49 1362 144 1  97  572  484 26% 23 164458 2343 38%
c i 31.92 1362 136 1 114  643  546 26% 24 164458 2342 38%
c i 32.14 1362 134 1 124  692  591 27% 26 164458 2341 38%
c 
c  seconds     reductions  redundant   irredundant
c          MB      restarts       trail       variables
c             level   conflicts       glue         remaining
c 
c i 32.78 1362 122 1 147  843  718 27% 26 164458 2340 38%
c i 33.20 1362 115 1 169  967  826 27% 27 164458 2339 38%
c i 33.24 1362 115 1 172  978  835 27% 27 164458 2338 38%
c } 33.32 1362 114 1 175 1000  854 27% 27 164458 2338 38%
c [ 33.32 1362  0 1 175 1000  854  0% 0 164458 2338 38%
c O 33.33 1362 39 1 175 1002  856 23% 30 164458 2338 38%
c - 33.89 1433 12 2 175 1029  799 21% 10 164051 2338 38%
c i 34.01 1433 33 2 175 1213  950 30% 28 164051 2337 38%
c i 34.05 1433 32 2 175 1328 1044 31% 26 164051 2336 38%
c i 34.16 1433 31 2 175 1697 1336 31% 26 164051 2335 38%
c - 34.42 1433 29 3 176 2125 1237 31% 25 164045 2335 38%
c i 34.62 1433 29 3 176 2422 1440 55% 25 164045 2334 38%
c i 34.66 1433 29 3 176 2590 1548 55% 25 164045 2333 38%
c ] 34.76 1433 28 3 176 3000 1829 54% 24 164045 2333 38%
c { 34.76 1433 114 3 176 3000 1829 72% 27 164045 2333 38%
c F 34.78 1433 114 3 176 3007 1833 71% 27 164045 2333 38%
c i 34.90 1433 109 3 176 3071 1888 70% 27 164045 2332 38%
c i 34.90 1433 108 3 176 3077 1892 69% 27 164045 2324 38%
c i 35.15 1433 100 3 191 3271 2059 66% 28 164045 2310 38%
c i 35.20 1433 100 3 194 3287 2074 66% 28 164045 2309 37%
c 
c  seconds     reductions  redundant   irredundant
c          MB      restarts       trail       variables
c             level   conflicts       glue         remaining
c 
c i 35.23 1433 100 3 197 3295 2080 66% 28 164045 2308 37%
c i 35.36 1433 97 3 207 3388 2168 65% 27 164045 2307 37%
c i 35.78 1433 98 3 236 3541 2304 63% 29 164045 2306 37%
c - 36.08 1363 98 4 242 3585 1670 62% 30 163656 2306 37%
c i 36.29 1363 98 4 257 3656 1734 61% 30 163656 2305 37%
c d 37.32 1363 67 4 286 5000 2774 57% 26 163652 2304 37%
c 2 37.36 1363 67 4 286 5000 3640 57% 26 163629 2304 37%
c p 39.49 1363 67 4 286 5000 6680 57% 26 163629 2236 36%
c d 39.72 1363 67 4 286 5000 6432 57% 26 130455 2235 36%
c - 40.13 1363 62 5 287 5405 2318 56% 25 130455 2235 36%
c # 40.40 1363 57 5 287 6013 2829 55% 25 130455 2235 36%
c } 42.51 1363 56 5 402 7000 3625 54% 26 130455 2235 36%
c [ 42.51 1363 28 5 402 7000 3625 54% 24 130455 2235 36%
c - 42.70 1363 29 6 403 7413 2800 54% 24 130455 2235 36%
c - 43.51 1363 33 7 404 9755 3297 52% 27 130455 2235 36%
c I 43.60 1363 33 7 404 10016 3513 52% 28 130455 2235 36%
c - 44.72 1363 32 8 406 12436 3438 52% 27 130455 2235 36%
c ] 45.80 1363 32 8 407 15004 5198 51% 26 130455 2235 36%
c { 45.80 1363 56 8 407 15004 5198 54% 26 130455 2235 36%
c 3 45.81 1363 56 8 407 15004 6245 54% 26 130455 2235 36%
c 
c  seconds    reductions   redundant   irredundant
c          MB     restarts        trail       variables
c            level    conflicts       glue         remaining
c 
c 2 45.84 1363 56 8 407 15004 6315 54% 26 130453 2235 36%
c p 46.58 1363 56 8 407 15004 9275 54% 26 130453 2235 36%
c B 46.66 1363 56 8 407 15018 9288 54% 26 130453 2235 36%
c - 47.38 1363 55 9 442 15447 3998 53% 26 130453 2235 36%
c s 48.66 1363 44 9 447 18784 6276 51% 22 128492 2235 36%
c v 49.81 1363 44 9 447 18784 6276 51% 22 128484 2235 36%
c t 49.85 1363 44 9 447 18784 6265 51% 22 128467 2235 36%
c e 50.31 1364 44 9 447 18784 5354 51% 22 125973 914 15%
c s 50.38 1364 44 9 447 18784 5354 51% 22 124642 914 15%
c - 51.02 1364 44 10 447 18794 3849 69% 22 124642 914 15%
c W 51.60 1364 38 10 450 21021 5146 72% 21 124642 914 15%
c - 52.61 1364 37 11 509 22409 4292 72% 20 124642 914 15%
c - 54.70 1364 33 12 596 26354 5136 72% 19 124642 914 15%
c F 55.32 1364 32 12 625 28022 6210 73% 19 124642 914 15%
c p 59.74 1364 33 12 879 30004 10400 72% 20 124642 913 15%
c - 60.24 1364 33 13 879 30627 5933 72% 20 124639 913 15%
c } 60.41 1364 33 13 881 31004 6219 72% 20 124639 913 15%
c [ 60.41 1364 32 13 881 31004 6219 131% 26 124639 913 15%
c - 62.12 1364 27 14 883 35228 6111 112% 23 124639 913 15%
c B 62.28 1364 28 14 884 36027 6738 109% 23 124639 913 15%
c 
c  seconds    reductions    redundant    irredundant
c          MB      restarts        trail        variables
c            level     conflicts        glue        remaining
c 
c - 64.16 1364 30 15 887 40159 6925 101% 25 124639 913 15%
c W 66.63 1364 31 15 888 45028 10233 95% 25 124639 913 15%
c - 66.77 1364 31 16 888 45419 7359 94% 25 124639 913 15%
c s 67.31 1364 32 16 889 47150 8465 93% 26 123618 913 15%
c v 68.34 1364 32 16 889 47150 8465 93% 26 123612 913 15%
c s 68.90 1364 32 16 889 47150 8465 93% 26 122706 913 15%
c p 70.76 1364 31 16 889 50004 13186 91% 26 122706 913 15%
c - 71.16 1364 31 17 889 51006 7464 90% 26 122706 913 15%
c ] 71.78 1364 31 17 889 53088 8915 89% 26 122706 913 15%
c 1 71.78 1364 31 17 889 53088 8915 89% 26 122706 913 15%
c 
c --- [ writing output ] -----------------------------------------------------
c 
c writing simplified CNF to DIMACS file 'simp/33.cubes2935.adj.simp1'
c * 71.78 1364 31 17 889 53088 8915 89% 26 122706 913 15%
c opening file to write 'simp/33.cubes2935.adj.simp1'
c writing 'p cnf 6160 122706' header
c closing file 'simp/33.cubes2935.adj.simp1'
c after writing 59444298 bytes 56.7 MB
c wrote 122706 clauses in 0.41 seconds process time
c 
c --- [ writing extension ] --------------------------------------------------
c 
c writing extension stack to 'simp/33.cubes2935.adj.ext1'
c opening file to write 'simp/33.cubes2935.adj.ext1'
c closing file 'simp/33.cubes2935.adj.ext1'
c after writing 84158 bytes 0.1 MB
c wrote 3748 witnesses in 0.00 seconds process time
c 
c --- [ result ] -------------------------------------------------------------
c 
s SATISFIABLE
c 
c --- [ run-time profiling ] -------------------------------------------------
c 
c process time taken by individual solving procedures
c (percentage relative to process time for solving)
c 
c        42.56   81.48% search
c        27.56   52.77% unstable
c        19.54   37.40% parse
c        12.97   24.83% stable
c         9.67   18.52% simplify
c         4.85    9.28% probe
c         2.21    4.23% vivify
c         1.70    3.26% elim
c         1.52    2.90% lucky
c         0.51    0.98% walk
c         0.35    0.67% subsume
c         0.08    0.15% ternary
c   =================================
c        52.24   72.36% solve
c 
c last line shows process time for solving
c (percentage relative to total process time)
c 
c --- [ statistics ] ---------------------------------------------------------
c 
c chronological:             10704        20.16 %  of conflicts
c conflicts:                 53088      1016.31    per second
c decisions:                132113      2529.16    per second
c eliminated:                 1321        21.44 %  of all variables
c fixed:                       780        12.66 %  of all variables
c learned:                   51894        97.75 %  per conflict
c learned_lits:           10151932       100.00 %  learned literals
c minimized:                     0         0.00 %  learned literals
c shrunken:                5833639        57.46 %  learned literals
c minishrunken:            1018778        10.04 %  learned literals
c propagations:            5035088         0.10 M  per second
c reduced:                   27388        51.59 %  per conflict
c rephased:                      9      5898.67    interval
c restarts:                    889        59.72    interval
c stabilizing:                   3        60.44 %  of conflicts
c substituted:                   2         0.03 %  of all variables
c subsumed:                  19998         0.60 %  of all clauses
c strengthened:               5885         0.18 %  of all clauses
c ternary:                    2827         0.61 %  of resolved
c vivified:                     29         0.00 %  of all clauses
c walked:                        2     26544.00    interval
c weakened:                   2968         3.04    average size
c 
c seconds are measured in process time for solving
c 
c --- [ resources ] ----------------------------------------------------------
c 
c total process time since initialization:        72.19    seconds
c total real time since initialization:           72.80    seconds
c maximum resident set size of process:         1503.38    MB
c 
c --- [ shutting down ] ------------------------------------------------------
c 
c exit 10
WARNING! DIMACS header mismatch: wrong number of variables.
============================[ Problem Statistics ]=============================
|                                                                             |
|  Number of variables:          3246                                         |
|  Number of clauses:          122706                                         |
|  Parse time:                   0.84 s                                       |
|  Simplification time:          0.01 s                                       |
|                                                                             |
============================[ Search Statistics ]====================================================
| Conflicts |          ORIGINAL         |          LEARNT          | Num Sols |      SUBGRAPHS      |
|           |    Vars  Clauses Literals |    Limit  Clauses Lit/Cl |          | Canonical Noncanon. |
=====================================================================================================
|       116 |    3153   122722 12701762 |     2000      116    132 |        0 |        26        16 |
|       493 |    3153   122949 12706211 |     2000      493     54 |        0 |       114       243 |
|      1295 |    3153   123526 12715592 |     2000     1295     30 |        0 |       378       820 |
|      3580 |    3153   125474 12752056 |     3605     2585     16 |        0 |      1510      2768 |
|      7914 |    3153   129302 12814046 |     6307     2621     12 |        0 |      3464      6596 |
|     13207 |    3153   133836 12893173 |     7556     4763     13 |        0 |      5349     11130 |
|     23707 |    3153   143197 13040974 |     9993     7100     13 |        0 |      7806     20491 |
|     34871 |    3153   152653 13171497 |    12401     7672     11 |        0 |      9817     29947 |
|     39639 |    3153   154859 13202711 |    13606     6245     10 |        0 |     10409     32153 |
|     49420 |    3153   160796 13292362 |    14807     9227     26 |        0 |     12260     38090 |
|     59363 |    3153   164973 13354442 |    16011    11774     30 |        0 |     13094     42267 |
|     88322 |    3153   185283 13635886 |    19607    14929     15 |        0 |     18438     62577 |
|    111012 |    3125   194999 13766485 |    22009    17421     14 |        0 |     21416     72293 |
=====================================================================================================
Number of solutions   : 0
Canonical subgraphs   : 35124          (13 /sec)
          order  3    : 1              (142857 /sec)
          order  4    : 1              (500000 /sec)
          order  5    : 1              (250000 /sec)
          order  6    : 1              (55556 /sec)
          order  7    : 1              (8929 /sec)
          order  8    : 2              (1357 /sec)
          order  9    : 6              (315 /sec)
          order 10    : 25             (97 /sec)
          order 11    : 110            (31 /sec)
          order 12    : 614            (14 /sec)
          order 13    : 3831           (13 /sec)
          order 14    : 3431           (21 /sec)
          order 15    : 12704          (14 /sec)
          order 16    : 14366          (11 /sec)
          order 17    : 30             (7 /sec)
          order 18    : 0              (-nan /sec)
          order 19    : 0              (-nan /sec)
          order 20    : 0              (-nan /sec)
          order 21    : 0              (-nan /sec)
          order 22    : 0              (-nan /sec)
Noncanonical subgraphs: 114393         (206 /sec)
          order  3    : 0              (-nan /sec)
          order  4    : 0              (-nan /sec)
          order  5    : 0              (-nan /sec)
          order  6    : 0              (-nan /sec)
          order  7    : 0              (-nan /sec)
          order  8    : 0              (-nan /sec)
          order  9    : 0              (-nan /sec)
          order 10    : 0              (-nan /sec)
          order 11    : 0              (-nan /sec)
          order 12    : 0              (-nan /sec)
          order 13    : 7994           (6937 /sec)
          order 14    : 54465          (763 /sec)
          order 15    : 16610          (1016 /sec)
          order 16    : 9113           (464 /sec)
          order 17    : 26176          (59 /sec)
          order 18    : 35             (41 /sec)
          order 19    : 0              (-nan /sec)
          order 20    : 0              (-nan /sec)
          order 21    : 0              (-nan /sec)
Canonicity checking   : 2744.17 s
Noncanonicity checking: 555.032 s
Total canonicity time : 3299.2 s
database reductions   : 20
restarts              : 444
conflicts             : 163024         (49 /sec)
decisions             : 329455         (0.00 % random) (99 /sec)
propagations          : 8285250        (2487 /sec)
conflict literals     : 5399053        (55.77 % deleted)
actual reward         : 0.121414
Memory used           : 177.00 MB
CPU time              : 3331.51 s

UNSATISFIABLE
